language ESSENCE' 1.0

letting fixed be 
[
    [7,5,2,9,0,8,0,4,0],
    [3,0,0,2,1,0,0,0,0],
    [0,1,0,0,0,0,2,8,0],
    [0,6,3,0,8,2,0,0,9],
    [0,2,7,0,9,0,5,0,8],
    [8,0,0,1,0,0,0,3,2],
    [2,7,1,0,0,9,8,0,4],
    [0,0,0,0,2,1,3,0,7],
    [0,3,0,8,7,4,0,2,0]
]